NAME          
ROWS
 N  OBJ
 L  c1
COLUMNS
    MARKER    'MARKER'                 'INTORG'
    x[1]      c1        447
    x[1]      OBJ       -810
    x[2]      c1        963
    x[2]      OBJ       -245
    x[3]      c1        171
    x[3]      OBJ       -777
    x[4]      c1        856
    x[4]      OBJ       -987
    x[5]      c1        191
    x[5]      OBJ       -814
    x[6]      c1        221
    x[6]      OBJ       -979
    x[7]      c1        834
    x[7]      OBJ       -188
    x[8]      c1        587
    x[8]      OBJ       -461
    x[9]      c1        608
    x[9]      OBJ       -20
    x[10]     c1        197
    x[10]     OBJ       -752
    x[11]     c1        502
    x[11]     OBJ       -476
    x[12]     c1        844
    x[12]     OBJ       -129
    x[13]     c1        868
    x[13]     OBJ       -748
    x[14]     c1        396
    x[14]     OBJ       -36
    x[15]     c1        739
    x[15]     OBJ       -275
    x[16]     c1        8
    x[16]     OBJ       -400
    x[17]     c1        680
    x[17]     OBJ       -570
    x[18]     c1        906
    x[18]     OBJ       -483
    x[19]     c1        419
    x[19]     OBJ       -88
    x[20]     c1        628
    x[20]     OBJ       -350
    x[21]     c1        934
    x[21]     OBJ       -59
    x[22]     c1        353
    x[22]     OBJ       -151
    x[23]     c1        948
    x[23]     OBJ       -534
    x[24]     c1        558
    x[24]     OBJ       -514
    x[25]     c1        12
    x[25]     OBJ       -66
    x[26]     c1        576
    x[26]     OBJ       -86
    x[27]     c1        39
    x[27]     OBJ       -322
    x[28]     c1        309
    x[28]     OBJ       -183
    x[29]     c1        672
    x[29]     OBJ       -863
    x[30]     c1        935
    x[30]     OBJ       -216
RHS
    rhs       c1        8200
RANGES
BOUNDS
 LO bounds    x[1]      0
 PL bounds    x[1]
 LO bounds    x[2]      0
 PL bounds    x[2]
 LO bounds    x[3]      0
 PL bounds    x[3]
 LO bounds    x[4]      0
 PL bounds    x[4]
 LO bounds    x[5]      0
 PL bounds    x[5]
 LO bounds    x[6]      0
 PL bounds    x[6]
 LO bounds    x[7]      0
 PL bounds    x[7]
 LO bounds    x[8]      0
 PL bounds    x[8]
 LO bounds    x[9]      0
 PL bounds    x[9]
 LO bounds    x[10]     0
 PL bounds    x[10]
 LO bounds    x[11]     0
 PL bounds    x[11]
 LO bounds    x[12]     0
 PL bounds    x[12]
 LO bounds    x[13]     0
 PL bounds    x[13]
 LO bounds    x[14]     0
 PL bounds    x[14]
 LO bounds    x[15]     0
 PL bounds    x[15]
 LO bounds    x[16]     0
 PL bounds    x[16]
 LO bounds    x[17]     0
 PL bounds    x[17]
 LO bounds    x[18]     0
 PL bounds    x[18]
 LO bounds    x[19]     0
 PL bounds    x[19]
 LO bounds    x[20]     0
 PL bounds    x[20]
 LO bounds    x[21]     0
 PL bounds    x[21]
 LO bounds    x[22]     0
 PL bounds    x[22]
 LO bounds    x[23]     0
 PL bounds    x[23]
 LO bounds    x[24]     0
 PL bounds    x[24]
 LO bounds    x[25]     0
 PL bounds    x[25]
 LO bounds    x[26]     0
 PL bounds    x[26]
 LO bounds    x[27]     0
 PL bounds    x[27]
 LO bounds    x[28]     0
 PL bounds    x[28]
 LO bounds    x[29]     0
 PL bounds    x[29]
 LO bounds    x[30]     0
 PL bounds    x[30]
ENDATA
